24
1 21
1 16
1 5
1 10
21 13
21 0
21 15
14 17
14 3
14 7
14 20
17 10
17 16
17 4
5 9
5 18
5 22
9 22
9 18
9 19
8 13
8 23
8 15
8 12
13 12
13 0
23 11
23 19
23 12
10 0
10 12
4 18
4 20
4 11
18 20
22 19
22 6
11 7
11 6
0 2
19 6
7 3
7 15
3 20
3 2
16 2
16 15
6 2
